c generated by ere2max.py
c max 13 14 15 16 17 18 19 20 21 22 23 24 25 26 27 28 29 30 31 32 33 34 35 36 37 38 39 40 41 42 43 44 45 46 47 48 49 50 51 52 53 54 55 56 57 58 59 60 61 62 63 64 65 66 67 68 69 70 71 72 0
c ind 75 76 0
p cnf 90 408
-76 75 77 0
-76 -78 75 0
-77 75 76 0
75 76 78 0
-75 76 77 0
-75 76 78 0
-79 0
-80 0
-81 0
-82 0
-83 0
-84 0
-85 0
-86 0
-87 0
-88 0
-89 0
-90 0
-13 -90 0
-13 -88 0
-15 -89 0
-15 -90 0
-19 -79 0
-19 -88 0
-21 -79 0
-21 -89 0
-25 -80 0
-25 -88 0
-27 -80 0
-27 -89 0
-31 -81 0
-31 -88 0
-33 -81 0
-33 -89 0
-37 -82 0
-37 -88 0
-39 -82 0
-39 -89 0
-43 -83 0
-43 -88 0
-45 -83 0
-45 -89 0
-49 -84 0
-49 -88 0
-51 -84 0
-51 -89 0
-55 -85 0
-55 -88 0
-57 -85 0
-57 -89 0
-61 -86 0
-61 -88 0
-63 -86 0
-63 -89 0
-67 -87 0
-67 -88 0
-69 -87 0
-69 -89 0
-16 90 0
-22 79 0
-28 80 0
-34 81 0
-40 82 0
-46 83 0
-52 84 0
-58 85 0
-64 86 0
-70 87 0
-13 2 0
-13 -73 0
-13 1 0
-15 3 0
-15 -74 0
-15 2 0
-19 4 0
-19 -73 0
-19 1 0
-21 4 0
-21 -74 0
-21 3 0
-25 5 0
-25 -73 0
-25 1 0
-27 5 0
-27 -74 0
-27 3 0
-31 6 0
-31 -73 0
-31 1 0
-33 6 0
-33 -74 0
-33 3 0
-37 7 0
-37 -73 0
-37 1 0
-39 7 0
-39 -74 0
-39 3 0
-43 8 0
-43 -73 0
-43 1 0
-45 8 0
-45 -74 0
-45 3 0
-49 9 0
-49 -73 0
-49 1 0
-51 9 0
-51 -74 0
-51 3 0
-55 10 0
-55 -73 0
-55 1 0
-57 10 0
-57 -74 0
-57 3 0
-61 11 0
-61 -73 0
-61 1 0
-63 11 0
-63 -74 0
-63 3 0
-67 12 0
-67 -73 0
-67 1 0
-69 12 0
-69 -74 0
-69 3 0
-2 -16 0
-4 -22 0
-5 -28 0
-6 -34 0
-7 -40 0
-8 -46 0
-9 -52 0
-10 -58 0
-11 -64 0
-12 -70 0
-1 13 19 25 31 37 43 49 55 61 67 88 0
-88 1 0
-2 13 15 90 0
-90 2 16 0
-73 78 0
-78 13 19 25 31 37 43 49 55 61 67 73 0
-3 15 21 27 33 39 45 51 57 63 69 89 0
-89 3 0
-74 77 0
-77 15 21 27 33 39 45 51 57 63 69 74 0
-4 19 21 79 0
-79 4 22 0
-5 25 27 80 0
-80 5 28 0
-6 31 33 81 0
-81 6 34 0
-7 37 39 82 0
-82 7 40 0
-8 43 45 83 0
-83 8 46 0
-9 49 51 84 0
-84 9 52 0
-10 55 57 85 0
-85 10 58 0
-11 61 63 86 0
-86 11 64 0
-12 67 69 87 0
-87 12 70 0
-13 -15 0
-14 -17 0
-13 -19 0
-14 -20 0
-13 -25 0
-14 -26 0
-13 -31 0
-14 -32 0
-13 -37 0
-14 -38 0
-13 -43 0
-14 -44 0
-13 -49 0
-14 -50 0
-13 -55 0
-14 -56 0
-13 -61 0
-14 -62 0
-13 -67 0
-14 -68 0
-13 -16 0
-14 -18 0
-15 -21 0
-17 -23 0
-15 -27 0
-17 -29 0
-15 -33 0
-17 -35 0
-15 -39 0
-17 -41 0
-15 -45 0
-17 -47 0
-15 -51 0
-17 -53 0
-15 -57 0
-17 -59 0
-15 -63 0
-17 -65 0
-15 -69 0
-17 -71 0
-15 -16 0
-17 -18 0
-19 -21 0
-20 -23 0
-19 -25 0
-20 -26 0
-19 -31 0
-20 -32 0
-19 -37 0
-20 -38 0
-19 -43 0
-20 -44 0
-19 -49 0
-20 -50 0
-19 -55 0
-20 -56 0
-19 -61 0
-20 -62 0
-19 -67 0
-20 -68 0
-19 -22 0
-20 -24 0
-21 -27 0
-23 -29 0
-21 -33 0
-23 -35 0
-21 -39 0
-23 -41 0
-21 -45 0
-23 -47 0
-21 -51 0
-23 -53 0
-21 -57 0
-23 -59 0
-21 -63 0
-23 -65 0
-21 -69 0
-23 -71 0
-21 -22 0
-23 -24 0
-25 -27 0
-26 -29 0
-25 -31 0
-26 -32 0
-25 -37 0
-26 -38 0
-25 -43 0
-26 -44 0
-25 -49 0
-26 -50 0
-25 -55 0
-26 -56 0
-25 -61 0
-26 -62 0
-25 -67 0
-26 -68 0
-25 -28 0
-26 -30 0
-27 -33 0
-29 -35 0
-27 -39 0
-29 -41 0
-27 -45 0
-29 -47 0
-27 -51 0
-29 -53 0
-27 -57 0
-29 -59 0
-27 -63 0
-29 -65 0
-27 -69 0
-29 -71 0
-27 -28 0
-29 -30 0
-31 -33 0
-32 -35 0
-31 -37 0
-32 -38 0
-31 -43 0
-32 -44 0
-31 -49 0
-32 -50 0
-31 -55 0
-32 -56 0
-31 -61 0
-32 -62 0
-31 -67 0
-32 -68 0
-31 -34 0
-32 -36 0
-33 -39 0
-35 -41 0
-33 -45 0
-35 -47 0
-33 -51 0
-35 -53 0
-33 -57 0
-35 -59 0
-33 -63 0
-35 -65 0
-33 -69 0
-35 -71 0
-33 -34 0
-35 -36 0
-37 -39 0
-38 -41 0
-37 -43 0
-38 -44 0
-37 -49 0
-38 -50 0
-37 -55 0
-38 -56 0
-37 -61 0
-38 -62 0
-37 -67 0
-38 -68 0
-37 -40 0
-38 -42 0
-39 -45 0
-41 -47 0
-39 -51 0
-41 -53 0
-39 -57 0
-41 -59 0
-39 -63 0
-41 -65 0
-39 -69 0
-41 -71 0
-39 -40 0
-41 -42 0
-43 -45 0
-44 -47 0
-43 -49 0
-44 -50 0
-43 -55 0
-44 -56 0
-43 -61 0
-44 -62 0
-43 -67 0
-44 -68 0
-43 -46 0
-44 -48 0
-45 -51 0
-47 -53 0
-45 -57 0
-47 -59 0
-45 -63 0
-47 -65 0
-45 -69 0
-47 -71 0
-45 -46 0
-47 -48 0
-49 -51 0
-50 -53 0
-49 -55 0
-50 -56 0
-49 -61 0
-50 -62 0
-49 -67 0
-50 -68 0
-49 -52 0
-50 -54 0
-51 -57 0
-53 -59 0
-51 -63 0
-53 -65 0
-51 -69 0
-53 -71 0
-51 -52 0
-53 -54 0
-55 -57 0
-56 -59 0
-55 -61 0
-56 -62 0
-55 -67 0
-56 -68 0
-55 -58 0
-56 -60 0
-57 -63 0
-59 -65 0
-57 -69 0
-59 -71 0
-57 -58 0
-59 -60 0
-61 -63 0
-62 -65 0
-61 -67 0
-62 -68 0
-61 -64 0
-62 -66 0
-63 -69 0
-65 -71 0
-63 -64 0
-65 -66 0
-67 -69 0
-68 -71 0
-67 -70 0
-68 -72 0
-69 -70 0
-71 -72 0
-73 0
-74 0
